experiments/extractfix/jasper/CVE-2016-9387/components/dec->tileyoff.smt2
(declare-const rvalue_dec->tileyoff (_ BitVec 32))
(declare-const lvalue_dec->tileyoff (_ BitVec 32))
(declare-const rreturn (_ BitVec 32))
(declare-const lreturn (_ BitVec 32))
(assert (and (= rreturn rvalue_dec->tileyoff) (= lreturn lvalue_dec->tileyoff)))